p cnf 72 332
-1 -2 3 0
-4 -2 3 0
-5 -2 6 0
-7 -2 6 0
-8 -9 3 0
-10 -9 3 0
-11 -9 6 0
-12 -9 6 0
-1 -13 -2 0
-4 -13 -2 0
-5 -14 -2 0
-7 -14 -2 0
-8 -13 -9 0
-10 -13 -9 0
-11 -14 -9 0
-12 -14 -9 0
-1 -13 -15 0
-4 -13 -15 0
-5 -14 -16 0
-7 -14 -16 0
-8 -13 -15 0
-10 -13 -15 0
-11 -14 -16 0
-12 -14 -16 0
-1 -13 -17 0
-4 -13 -17 0
-5 -14 -18 0
-7 -14 -18 0
-8 -13 -17 0
-10 -13 -17 0
-11 -14 -18 0
-12 -14 -18 0
-19 3 0
-20 6 0
-19 14 0
-20 13 0
-19 21 0
-20 22 0
-19 16 0
-20 15 0
-1 -2 -23 24 20 0
-4 -2 -25 24 20 0
-5 -2 -26 27 19 0
-7 -2 -28 27 19 0
-8 -9 -29 24 20 0
-10 -9 -30 24 20 0
-11 -9 -31 27 19 0
-12 -9 -32 27 19 0
-27 14 0
-24 13 0
-27 6 0
-24 3 0
-27 -17 0
-24 -18 0
-33 -34 -13 14 6 0
-34 -33 -14 13 3 0
-35 -36 -13 14 6 0
-36 -35 -14 13 3 0
-33 -34 -13 14 27 19 0
-34 -33 -14 13 24 20 0
-35 -36 -13 14 27 19 0
-36 -35 -14 13 24 20 0
-3 -14 0
-6 -13 0
-13 -27 19 0
-14 -24 20 0
-3 -21 1 0
-3 -21 4 0
-6 -22 5 0
-6 -22 7 0
-3 -21 8 0
-3 -21 10 0
-6 -22 11 0
-6 -22 12 0
-37 -17 0
-38 -18 0
-37 -39 0
-38 -40 0
-39 -15 0
-40 -16 0
-3 21 41 42 43 44 0
-6 22 45 46 47 48 0
-44 -24 0
-48 -27 0
-3 -21 24 20 0
-6 -22 27 19 0
-13 17 26 0
-13 17 28 0
-14 18 23 0
-14 18 25 0
-13 17 31 0
-13 17 32 0
-14 18 29 0
-14 18 30 0
-19 -44 0
-20 -48 0
-19 17 0
-20 18 0
-19 15 0
-20 16 0
-13 27 19 0
-14 24 20 0
-3 44 24 0
-6 48 27 0
-1 26 23 0
-5 26 23 0
-4 28 25 0
-7 28 25 0
-8 31 29 0
-11 31 29 0
-10 32 30 0
-12 32 30 0
-26 1 5 0
-23 1 5 0
-28 4 7 0
-25 4 7 0
-31 8 11 0
-29 8 11 0
-32 10 12 0
-30 10 12 0
-13 15 37 39 0
-14 16 38 40 0
-15 -37 0
-16 -38 0
-42 -42 51 0
-42 -21 52 0
-21 -42 53 0
-21 -21 54 0
-46 -46 51 0
-46 -22 52 0
-22 -46 53 0
-22 -22 54 0
-39 33 35 0
-40 34 36 0
-3 42 21 0
-6 46 22 0
-27 -24 0
-24 -27 0
-19 -20 0
-20 -19 0
-27 55 -27 0
-24 56 -24 0
-19 55 -19 0
-20 56 -20 0
-19 -27 0
-20 -24 0
-15 -27 0
-16 -24 0
-37 -19 0
-38 -20 0
-39 -19 0
-40 -20 0
-37 -5 -26 57 27 0
-37 -7 -28 57 27 0
-37 -11 -31 58 27 0
-37 -12 -32 58 27 0
-38 -1 -23 57 24 0
-38 -4 -25 57 24 0
-38 -8 -29 58 24 0
-38 -10 -30 58 24 0
-37 -5 -26 57 27 0
-37 -7 -28 57 27 0
-37 -11 -31 58 27 0
-37 -12 -32 58 27 0
-38 -1 -23 57 24 0
-38 -4 -25 57 24 0
-38 -8 -29 58 24 0
-38 -10 -30 58 24 0
-37 -5 -26 57 27 0
-37 -7 -28 57 27 0
-37 -11 -31 58 27 0
-37 -12 -32 58 27 0
-38 -1 -23 57 24 0
-38 -4 -25 57 24 0
-38 -8 -29 58 24 0
-38 -10 -30 58 24 0
-39 -5 -26 57 27 0
-39 -7 -28 57 27 0
-39 -11 -31 58 27 0
-39 -12 -32 58 27 0
-40 -1 -23 57 24 0
-40 -4 -25 57 24 0
-40 -8 -29 58 24 0
-40 -10 -30 58 24 0
-39 -5 26 27 0
-39 -7 28 27 0
-39 -11 31 27 0
-39 -12 32 27 0
-40 -1 23 24 0
-40 -4 25 24 0
-40 -8 29 24 0
-40 -10 30 24 0
-39 -5 -26 57 27 0
-39 -7 -28 57 27 0
-39 -11 -31 58 27 0
-39 -12 -32 58 27 0
-40 -1 -23 57 24 0
-40 -4 -25 57 24 0
-40 -8 -29 58 24 0
-40 -10 -30 58 24 0
-33 -34 59 27 24 0
-34 -33 60 24 27 0
-35 -36 59 27 24 0
-36 -35 60 24 27 0
-33 -34 59 -3 -14 24 0
-34 -33 60 -6 -13 27 0
-35 -36 59 -3 -14 24 0
-36 -35 60 -6 -13 27 0
-27 -33 34 0
-27 -35 36 0
-24 -34 33 0
-24 -36 35 0
-1 3 0
-4 3 0
-5 6 0
-7 6 0
-8 3 0
-10 3 0
-11 6 0
-12 6 0
-42 3 0
-21 3 0
-46 6 0
-22 6 0
-27 13 0
-24 14 0
-27 6 0
-24 3 0
-39 13 0
-37 13 0
-40 14 0
-38 14 0
-19 13 0
-20 14 0
-19 6 0
-20 3 0
-17 13 0
-49 13 0
-18 14 0
-50 14 0
-26 13 0
-28 13 0
-23 14 0
-25 14 0
-31 13 0
-32 13 0
-29 14 0
-30 14 0
13 3 0
14 6 0
-13 -3 0
-14 -6 0
-39 61 -39 0
-39 62 -37 0
-37 63 -39 0
-37 64 -37 0
-40 61 -40 0
-40 62 -38 0
-38 63 -40 0
-38 64 -38 0
-17 65 -17 0
-17 66 -49 0
-49 67 -17 0
-49 68 -49 0
-18 65 -18 0
-18 66 -50 0
-50 67 -18 0
-50 68 -50 0
-1 69 -1 0
-4 69 -4 0
-5 69 -5 0
-7 69 -7 0
-1 70 -8 0
-4 70 -10 0
-5 70 -11 0
-7 70 -12 0
-8 71 -1 0
-10 71 -4 0
-11 71 -5 0
-12 71 -7 0
-8 72 -8 0
-10 72 -10 0
-11 72 -11 0
-12 72 -12 0
-1 56 -1 0
-4 56 -4 0
-1 59 -5 0
-4 59 -7 0
-5 60 -1 0
-7 60 -4 0
-5 55 -5 0
-7 55 -7 0
-8 56 -8 0
-10 56 -10 0
-8 59 -11 0
-10 59 -12 0
-11 60 -8 0
-12 60 -10 0
-11 55 -11 0
-12 55 -12 0
-26 69 -26 0
-28 69 -28 0
-23 69 -23 0
-25 69 -25 0
-26 70 -31 0
-28 70 -32 0
-23 70 -29 0
-25 70 -30 0
-31 71 -26 0
-32 71 -28 0
-29 71 -23 0
-30 71 -25 0
-31 72 -31 0
-32 72 -32 0
-29 72 -29 0
-30 72 -30 0
-26 56 -26 0
-28 56 -28 0
-26 59 -23 0
-28 59 -25 0
-23 60 -26 0
-25 60 -28 0
-23 55 -23 0
-25 55 -25 0
-31 56 -31 0
-32 56 -32 0
-31 59 -29 0
-32 59 -30 0
-29 60 -31 0
-30 60 -32 0
-29 55 -29 0
-30 55 -30 0
